NAME: clu_20_4
TYPE: TSP
DIMENSION: 20
EDGE_WEIGHT_TYPE: EUC_2D
NODE_COORD_SECTION
1 39 -9
2 75 12
3 76 65
4 65 41
5 2 60
6 90 64
7 37 26
8 65 45
9 44 26
10 72 57
11 61 52
12 70 47
13 99 51
14 52 56
15 7 61
16 61 65
17 76 50
18 65 81
19 24 9
20 69 45
EOF
